
  22   10
  10   10   10   10   10   10   10   10   10   10

   0   0   0   0   0   0   0   0   0   0   0   2 2 3 
   8  10  10  10  10  10  10  10  10  10  10   3 8 5 4 
   6  10  10  10  10  10  10  10  10  10  10   3 9 8 6 
   1  10  10  10  10  10  10  10  10  10  10   3 11 9 6 
   2  10  10  10  10  10  10  10  10  10  10   3 19 9 7 
   5  10  10  10  10  10  10  10  10  10  10   4 20 13 12 7 
   3  10  10  10  10  10  10  10  10  10  10   4 21 17 14 10 
   1  10  10  10  10  10  10  10  10  10  10   4 17 16 14 11 
   1  10  10  10  10  10  10  10  10  10  10   5 20 15 14 13 12 
   9  10  10  10  10  10  10  10  10  10  10   3 18 16 15 
   2  10  10  10  10  10  10  10  10  10  10   3 19 13 12 
   7  10  10  10  10  10  10  10  10  10  10   1 22
   5  10  10  10  10  10  10  10  10  10  10   1 22
   2  10  10  10  10  10  10  10  10  10  10   1 22
   8  10  10  10  10  10  10  10  10  10  10   1 22
   6  10  10  10  10  10  10  10  10  10  10   1 22
   7  10  10  10  10  10  10  10  10  10  10   1 22
   6  10  10  10  10  10  10  10  10  10  10   1 22
   3  10  10  10  10  10  10  10  10  10  10   1 22
   9  10  10  10  10  10  10  10  10  10  10   1 22
   3  10  10  10  10  10  10  10  10  10  10   1 22
   0   0   0   0   0   0   0   0   0   0   0   0 
